Version identifier: 22.1.0.0 | 2022-03-09 | 1a383f8ce
CPXPARAM_Read_DataCheck                          1
1 of 1 MIP starts provided solutions.
MIP start 'm1' defined initial solution with objective 41.0000.
Tried aggregator 3 times.
MIP Presolve eliminated 31112 rows and 3826 columns.
MIP Presolve modified 495 coefficients.
Aggregator did 27926 substitutions.
Reduced MIP has 4233 rows, 29010 columns, and 62241 nonzeros.
Reduced MIP has 28984 binaries, 26 generals, 0 SOSs, and 0 indicators.
Presolve time = 0.26 sec. (281.58 ticks)
Tried aggregator 1 time.
Detecting symmetries...
Reduced MIP has 4233 rows, 29010 columns, and 62241 nonzeros.
Reduced MIP has 28984 binaries, 26 generals, 0 SOSs, and 0 indicators.
Presolve time = 0.05 sec. (44.53 ticks)
Probing fixed 39 vars, tightened 0 bounds.
Probing changed sense of 7 constraints.
Probing time = 0.05 sec. (10.08 ticks)
Clique table members: 59057.
MIP emphasis: balance optimality and feasibility.
MIP search method: dynamic search.
Parallel mode: deterministic, using up to 8 threads.
Root relaxation solution time = 0.28 sec. (233.06 ticks)

        Nodes                                         Cuts/
   Node  Left     Objective  IInf  Best Integer    Best Bound    ItCnt     Gap

*     0+    0                           41.0000        0.0000           100.00%
      0     0       26.3907  3085       41.0000       26.3907     3802   35.63%
      0     0        cutoff             41.0000                   3816    0.00%
Elapsed time = 2.18 sec. (1400.09 ticks, tree = 0.01 MB, solutions = 1)

Zero-half cuts applied:  21
Gomory fractional cuts applied:  15

Root node processing (before b&c):
  Real time             =    2.18 sec. (1402.13 ticks)
Parallel b&c, 8 threads:
  Real time             =    0.00 sec. (0.00 ticks)
  Sync time (average)   =    0.00 sec.
  Wait time (average)   =    0.00 sec.
                          ------------
Total (root+branch&cut) =    2.18 sec. (1402.13 ticks)
